\ Model dominator-partition-fixed-k
\ LP format - for model browsing. Use MPS format to capture full model detail.
\ Signature: 0x5ed5bd13024d20b4
Minimize
  - 0.1280101957159925 x[1,1] - 0.9481475363442173 x[1,2]
   + 0.0993249557574183 x[1,3] - 0.1293552147634462 x[1,4]
   - 0.1592643958250219 x[1,5] - 0.3393303579922518 x[2,1]
   - 0.590702731924315 x[2,2] + 0.2385419327013274 x[2,3]
   - 0.4006906526509537 x[2,4] - 0.4663454497942667 x[2,5]
   + 0.2422676655385898 x[3,1] + 0.0582841885540781 x[3,2]
   - 0.7308401093101329 x[3,3] + 0.0271562425314928 x[3,4]
   - 0.6311202687061694 x[3,5] + 0.5706702956333469 x[4,1]
   + 0.7079505852789776 x[4,2] - 0.0115263252361444 x[4,3]
   + 0.693122970714936 x[4,4] - 0.840709045981878 x[4,5]
   + 0.0104921802434079 x[5,1] - 0.8694269912262438 x[5,2]
   - 0.1437553448052211 x[5,3] - 0.8069381686787749 x[5,4]
   - 0.7456800565974451 x[5,5] + 0.1934906179571916 x[6,1]
   - 0.5479759987915283 x[6,2] - 0.7861086313800341 x[6,3]
   - 0.5593875858588806 x[6,4] - 0.3003474299934015 x[6,5]
   - 0.0644250308353995 d[1,1] - 0.5965135474700693 d[1,2]
   + 0.2808134504298296 d[1,3] - 0.0338603288964967 d[1,4]
   + 0.0104734400370983 d[1,5] - 0.2262146977628814 d[2,1]
   + 0.5872749088831541 d[2,2] + 0.1600083577556133 d[2,3]
   - 0.6754028029953723 d[2,4] + 0.4015046932143125 d[2,5]
   + 0.9291021601785103 d[3,1] + 1.67223e-05 d[3,2]
   + 0.7790401278922898 d[3,3] - 0.3167726946577807 d[3,4]
   + 0.1342882552554185 d[3,5] - 0.1449080734077799 d[4,1]
   - 0.126505473946402 d[4,2] + 0.5531183699942006 d[4,3]
   + 0.0712083469953126 d[4,4] + 0.9074844538897333 d[4,5]
   + 0.0884163202962043 d[5,1] - 0.8358101554499504 d[5,2]
   - 0.2673151966499592 d[5,3] + 0.7017010080090034 d[5,4]
   - 0.1874499139040984 d[5,5] - 0.9455952682103008 d[6,1]
   - 0.5056455220052933 d[6,2] - 0.8657112585260907 d[6,3]
   + 0.9877040228425458 d[6,4] + 0.9411606267543471 d[6,5]
Subject To
 Assign_1: x[1,1] + x[1,2] + x[1,3] + x[1,4] + x[1,5] = 1
 Assign_2: x[2,1] + x[2,2] + x[2,3] + x[2,4] + x[2,5] = 1
 Assign_3: x[3,1] + x[3,2] + x[3,3] + x[3,4] + x[3,5] = 1
 Assign_4: x[4,1] + x[4,2] + x[4,3] + x[4,4] + x[4,5] = 1
 Assign_5: x[5,1] + x[5,2] + x[5,3] + x[5,4] + x[5,5] = 1
 Assign_6: x[6,1] + x[6,2] + x[6,3] + x[6,4] + x[6,5] = 1
 NonEmptyBlock_1: x[1,1] + x[2,1] + x[3,1] + x[4,1] + x[5,1] + x[6,1] >= 1
 NonEmptyBlock_2: x[1,2] + x[2,2] + x[3,2] + x[4,2] + x[5,2] + x[6,2] >= 1
 NonEmptyBlock_3: x[1,3] + x[2,3] + x[3,3] + x[4,3] + x[5,3] + x[6,3] >= 1
 NonEmptyBlock_4: x[1,4] + x[2,4] + x[3,4] + x[4,4] + x[5,4] + x[6,4] >= 1
 NonEmptyBlock_5: x[1,5] + x[2,5] + x[3,5] + x[4,5] + x[5,5] + x[6,5] >= 1
 Dominate_1_3_1: x[3,1] + d[1,1] <= 1
 Dominate_1_3_2: x[3,2] + d[1,2] <= 1
 Dominate_1_3_3: x[3,3] + d[1,3] <= 1
 Dominate_1_3_4: x[3,4] + d[1,4] <= 1
 Dominate_1_3_5: x[3,5] + d[1,5] <= 1
 Dominate_1_4_1: x[4,1] + d[1,1] <= 1
 Dominate_1_4_2: x[4,2] + d[1,2] <= 1
 Dominate_1_4_3: x[4,3] + d[1,3] <= 1
 Dominate_1_4_4: x[4,4] + d[1,4] <= 1
 Dominate_1_4_5: x[4,5] + d[1,5] <= 1
 Dominate_1_5_1: x[5,1] + d[1,1] <= 1
 Dominate_1_5_2: x[5,2] + d[1,2] <= 1
 Dominate_1_5_3: x[5,3] + d[1,3] <= 1
 Dominate_1_5_4: x[5,4] + d[1,4] <= 1
 Dominate_1_5_5: x[5,5] + d[1,5] <= 1
 Dominate_1_6_1: x[6,1] + d[1,1] <= 1
 Dominate_1_6_2: x[6,2] + d[1,2] <= 1
 Dominate_1_6_3: x[6,3] + d[1,3] <= 1
 Dominate_1_6_4: x[6,4] + d[1,4] <= 1
 Dominate_1_6_5: x[6,5] + d[1,5] <= 1
 Dominate_2_4_1: x[4,1] + d[2,1] <= 1
 Dominate_2_4_2: x[4,2] + d[2,2] <= 1
 Dominate_2_4_3: x[4,3] + d[2,3] <= 1
 Dominate_2_4_4: x[4,4] + d[2,4] <= 1
 Dominate_2_4_5: x[4,5] + d[2,5] <= 1
 Dominate_2_5_1: x[5,1] + d[2,1] <= 1
 Dominate_2_5_2: x[5,2] + d[2,2] <= 1
 Dominate_2_5_3: x[5,3] + d[2,3] <= 1
 Dominate_2_5_4: x[5,4] + d[2,4] <= 1
 Dominate_2_5_5: x[5,5] + d[2,5] <= 1
 Dominate_2_6_1: x[6,1] + d[2,1] <= 1
 Dominate_2_6_2: x[6,2] + d[2,2] <= 1
 Dominate_2_6_3: x[6,3] + d[2,3] <= 1
 Dominate_2_6_4: x[6,4] + d[2,4] <= 1
 Dominate_2_6_5: x[6,5] + d[2,5] <= 1
 Dominate_3_1_1: x[1,1] + d[3,1] <= 1
 Dominate_3_1_2: x[1,2] + d[3,2] <= 1
 Dominate_3_1_3: x[1,3] + d[3,3] <= 1
 Dominate_3_1_4: x[1,4] + d[3,4] <= 1
 Dominate_3_1_5: x[1,5] + d[3,5] <= 1
 Dominate_3_5_1: x[5,1] + d[3,1] <= 1
 Dominate_3_5_2: x[5,2] + d[3,2] <= 1
 Dominate_3_5_3: x[5,3] + d[3,3] <= 1
 Dominate_3_5_4: x[5,4] + d[3,4] <= 1
 Dominate_3_5_5: x[5,5] + d[3,5] <= 1
 Dominate_3_6_1: x[6,1] + d[3,1] <= 1
 Dominate_3_6_2: x[6,2] + d[3,2] <= 1
 Dominate_3_6_3: x[6,3] + d[3,3] <= 1
 Dominate_3_6_4: x[6,4] + d[3,4] <= 1
 Dominate_3_6_5: x[6,5] + d[3,5] <= 1
 Dominate_4_1_1: x[1,1] + d[4,1] <= 1
 Dominate_4_1_2: x[1,2] + d[4,2] <= 1
 Dominate_4_1_3: x[1,3] + d[4,3] <= 1
 Dominate_4_1_4: x[1,4] + d[4,4] <= 1
 Dominate_4_1_5: x[1,5] + d[4,5] <= 1
 Dominate_4_2_1: x[2,1] + d[4,1] <= 1
 Dominate_4_2_2: x[2,2] + d[4,2] <= 1
 Dominate_4_2_3: x[2,3] + d[4,3] <= 1
 Dominate_4_2_4: x[2,4] + d[4,4] <= 1
 Dominate_4_2_5: x[2,5] + d[4,5] <= 1
 Dominate_4_6_1: x[6,1] + d[4,1] <= 1
 Dominate_4_6_2: x[6,2] + d[4,2] <= 1
 Dominate_4_6_3: x[6,3] + d[4,3] <= 1
 Dominate_4_6_4: x[6,4] + d[4,4] <= 1
 Dominate_4_6_5: x[6,5] + d[4,5] <= 1
 Dominate_5_1_1: x[1,1] + d[5,1] <= 1
 Dominate_5_1_2: x[1,2] + d[5,2] <= 1
 Dominate_5_1_3: x[1,3] + d[5,3] <= 1
 Dominate_5_1_4: x[1,4] + d[5,4] <= 1
 Dominate_5_1_5: x[1,5] + d[5,5] <= 1
 Dominate_5_2_1: x[2,1] + d[5,1] <= 1
 Dominate_5_2_2: x[2,2] + d[5,2] <= 1
 Dominate_5_2_3: x[2,3] + d[5,3] <= 1
 Dominate_5_2_4: x[2,4] + d[5,4] <= 1
 Dominate_5_2_5: x[2,5] + d[5,5] <= 1
 Dominate_5_3_1: x[3,1] + d[5,1] <= 1
 Dominate_5_3_2: x[3,2] + d[5,2] <= 1
 Dominate_5_3_3: x[3,3] + d[5,3] <= 1
 Dominate_5_3_4: x[3,4] + d[5,4] <= 1
 Dominate_5_3_5: x[3,5] + d[5,5] <= 1
 Dominate_6_1_1: x[1,1] + d[6,1] <= 1
 Dominate_6_1_2: x[1,2] + d[6,2] <= 1
 Dominate_6_1_3: x[1,3] + d[6,3] <= 1
 Dominate_6_1_4: x[1,4] + d[6,4] <= 1
 Dominate_6_1_5: x[1,5] + d[6,5] <= 1
 Dominate_6_2_1: x[2,1] + d[6,1] <= 1
 Dominate_6_2_2: x[2,2] + d[6,2] <= 1
 Dominate_6_2_3: x[2,3] + d[6,3] <= 1
 Dominate_6_2_4: x[2,4] + d[6,4] <= 1
 Dominate_6_2_5: x[2,5] + d[6,5] <= 1
 Dominate_6_3_1: x[3,1] + d[6,1] <= 1
 Dominate_6_3_2: x[3,2] + d[6,2] <= 1
 Dominate_6_3_3: x[3,3] + d[6,3] <= 1
 Dominate_6_3_4: x[3,4] + d[6,4] <= 1
 Dominate_6_3_5: x[3,5] + d[6,5] <= 1
 Dominate_6_4_1: x[4,1] + d[6,1] <= 1
 Dominate_6_4_2: x[4,2] + d[6,2] <= 1
 Dominate_6_4_3: x[4,3] + d[6,3] <= 1
 Dominate_6_4_4: x[4,4] + d[6,4] <= 1
 Dominate_6_4_5: x[4,5] + d[6,5] <= 1
 DominateBlock_1: d[1,1] + d[1,2] + d[1,3] + d[1,4] + d[1,5] = 1
 DominateBlock_2: d[2,1] + d[2,2] + d[2,3] + d[2,4] + d[2,5] = 1
 DominateBlock_3: d[3,1] + d[3,2] + d[3,3] + d[3,4] + d[3,5] = 1
 DominateBlock_4: d[4,1] + d[4,2] + d[4,3] + d[4,4] + d[4,5] = 1
 DominateBlock_5: d[5,1] + d[5,2] + d[5,3] + d[5,4] + d[5,5] = 1
 DominateBlock_6: d[6,1] + d[6,2] + d[6,3] + d[6,4] + d[6,5] = 1
 Order_1: x[1,1] - x[1,2] + x[2,1] - x[2,2] + x[3,1] - x[3,2] + x[4,1]
   - x[4,2] + x[5,1] - x[5,2] + x[6,1] - x[6,2] >= 0
 Order_2: x[1,2] - x[1,3] + x[2,2] - x[2,3] + x[3,2] - x[3,3] + x[4,2]
   - x[4,3] + x[5,2] - x[5,3] + x[6,2] - x[6,3] >= 0
 Order_3: x[1,3] - x[1,4] + x[2,3] - x[2,4] + x[3,3] - x[3,4] + x[4,3]
   - x[4,4] + x[5,3] - x[5,4] + x[6,3] - x[6,4] >= 0
 Order_4: x[1,4] - x[1,5] + x[2,4] - x[2,5] + x[3,4] - x[3,5] + x[4,4]
   - x[4,5] + x[5,4] - x[5,5] + x[6,4] - x[6,5] >= 0
 Valid_1: x[1,1] + x[2,1] + x[3,1] + x[4,1] + x[5,1] + x[6,1] >= 2
 Valid_2: x[1,5] + x[2,5] + x[3,5] + x[4,5] + x[5,5] + x[6,5] <= 1
 Valid_Dominate_1_1: - x[1,1] - x[2,1] + d[1,1] >= -1
 Valid_Dominate_1_2: - x[1,2] - x[2,2] + d[1,2] >= -1
 Valid_Dominate_1_3: - x[1,3] - x[2,3] + d[1,3] >= -1
 Valid_Dominate_1_4: - x[1,4] - x[2,4] + d[1,4] >= -1
 Valid_Dominate_1_5: - x[1,5] - x[2,5] + d[1,5] >= -1
 Valid_Dominate_2_1: - x[1,1] - x[2,1] - x[3,1] + d[2,1] >= -2
 Valid_Dominate_2_2: - x[1,2] - x[2,2] - x[3,2] + d[2,2] >= -2
 Valid_Dominate_2_3: - x[1,3] - x[2,3] - x[3,3] + d[2,3] >= -2
 Valid_Dominate_2_4: - x[1,4] - x[2,4] - x[3,4] + d[2,4] >= -2
 Valid_Dominate_2_5: - x[1,5] - x[2,5] - x[3,5] + d[2,5] >= -2
 Valid_Dominate_3_1: - x[2,1] - x[3,1] - x[4,1] + d[3,1] >= -2
 Valid_Dominate_3_2: - x[2,2] - x[3,2] - x[4,2] + d[3,2] >= -2
 Valid_Dominate_3_3: - x[2,3] - x[3,3] - x[4,3] + d[3,3] >= -2
 Valid_Dominate_3_4: - x[2,4] - x[3,4] - x[4,4] + d[3,4] >= -2
 Valid_Dominate_3_5: - x[2,5] - x[3,5] - x[4,5] + d[3,5] >= -2
 Valid_Dominate_4_1: - x[3,1] - x[4,1] - x[5,1] + d[4,1] >= -2
 Valid_Dominate_4_2: - x[3,2] - x[4,2] - x[5,2] + d[4,2] >= -2
 Valid_Dominate_4_3: - x[3,3] - x[4,3] - x[5,3] + d[4,3] >= -2
 Valid_Dominate_4_4: - x[3,4] - x[4,4] - x[5,4] + d[4,4] >= -2
 Valid_Dominate_4_5: - x[3,5] - x[4,5] - x[5,5] + d[4,5] >= -2
 Valid_Dominate_5_1: - x[4,1] - x[5,1] - x[6,1] + d[5,1] >= -2
 Valid_Dominate_5_2: - x[4,2] - x[5,2] - x[6,2] + d[5,2] >= -2
 Valid_Dominate_5_3: - x[4,3] - x[5,3] - x[6,3] + d[5,3] >= -2
 Valid_Dominate_5_4: - x[4,4] - x[5,4] - x[6,4] + d[5,4] >= -2
 Valid_Dominate_5_5: - x[4,5] - x[5,5] - x[6,5] + d[5,5] >= -2
 Valid_Dominate_6_1: - x[5,1] - x[6,1] + d[6,1] >= -1
 Valid_Dominate_6_2: - x[5,2] - x[6,2] + d[6,2] >= -1
 Valid_Dominate_6_3: - x[5,3] - x[6,3] + d[6,3] >= -1
 Valid_Dominate_6_4: - x[5,4] - x[6,4] + d[6,4] >= -1
 Valid_Dominate_6_5: - x[5,5] - x[6,5] + d[6,5] >= -1
Bounds
 x[1,1] <= 1
 x[1,2] <= 1
 x[1,3] <= 1
 x[1,4] <= 1
 x[1,5] <= 1
 x[2,1] <= 1
 x[2,2] <= 1
 x[2,3] <= 1
 x[2,4] <= 1
 x[2,5] <= 1
 x[3,1] <= 1
 x[3,2] <= 1
 x[3,3] <= 1
 x[3,4] <= 1
 x[3,5] <= 1
 x[4,1] <= 1
 x[4,2] <= 1
 x[4,3] <= 1
 x[4,4] <= 1
 x[4,5] <= 1
 x[5,1] <= 1
 x[5,2] <= 1
 x[5,3] <= 1
 x[5,4] <= 1
 x[5,5] <= 1
 x[6,1] <= 1
 x[6,2] <= 1
 x[6,3] <= 1
 x[6,4] <= 1
 x[6,5] <= 1
 d[1,1] <= 1
 d[1,2] <= 1
 d[1,3] <= 1
 d[1,4] <= 1
 d[1,5] <= 1
 d[2,1] <= 1
 d[2,2] <= 1
 d[2,3] <= 1
 d[2,4] <= 1
 d[2,5] <= 1
 d[3,1] <= 1
 d[3,2] <= 1
 d[3,3] <= 1
 d[3,4] <= 1
 d[3,5] <= 1
 d[4,1] <= 1
 d[4,2] <= 1
 d[4,3] <= 1
 d[4,4] <= 1
 d[4,5] <= 1
 d[5,1] <= 1
 d[5,2] <= 1
 d[5,3] <= 1
 d[5,4] <= 1
 d[5,5] <= 1
 d[6,1] <= 1
 d[6,2] <= 1
 d[6,3] <= 1
 d[6,4] <= 1
 d[6,5] <= 1
End
